
#######################Iteration 0#######################

#######################Solve Z 0#######################
Solver command line: ['/home/kevin/scratch/anaconda3/envs/k57/bin/ipopt', '/tmp/tmpo8kk7f0v.pyomo.nl', '-AMPL']

Ipopt 3.13.3: 

******************************************************************************
This program contains Ipopt, a library for large-scale nonlinear optimization.
 Ipopt is released as open source code under the Eclipse Public License (EPL).
         For more information visit https://github.com/coin-or/Ipopt
******************************************************************************

This is Ipopt version 3.13.3, running with linear solver mumps.
NOTE: Other linear solvers might be more efficient (see Ipopt documentation).

Number of nonzeros in equality constraint Jacobian...:     5983
Number of nonzeros in inequality constraint Jacobian.:        0
Number of nonzeros in Lagrangian Hessian.............:     3298

Total number of variables............................:     2699
                     variables with only lower bounds:      900
                variables with lower and upper bounds:        2
                     variables with only upper bounds:        0
Total number of equality constraints.................:     1797
Total number of inequality constraints...............:        0
        inequality constraints with only lower bounds:        0
   inequality constraints with lower and upper bounds:        0
        inequality constraints with only upper bounds:        0

iter    objective    inf_pr   inf_du lg(mu)  ||d||  lg(rg) alpha_du alpha_pr  ls
   0  4.3748102e-04 4.26e-13 1.00e+00  -1.0 0.00e+00    -  0.00e+00 0.00e+00   0
   1  4.3732986e+00 2.47e-03 3.56e-01  -1.0 1.80e-01    -  8.63e-01 1.00e+00f  1
   2  2.2971922e+00 1.68e-01 2.61e-01  -1.7 1.34e+00    -  1.00e+00 9.43e-01f  1
   3  1.2735289e+00 1.25e-01 1.04e+01  -1.7 4.15e-01    -  4.43e-02 1.00e+00h  1
   4  1.9650617e+00 2.38e-02 7.03e+00  -1.7 2.83e-01    -  1.00e+00 1.00e+00h  1
   5  1.5269210e+00 1.39e-03 3.63e-01  -1.7 4.27e-02   0.0 1.00e+00 1.00e+00h  1
   6  1.4262259e+00 9.11e-03 4.42e-01  -1.7 1.12e-01    -  1.00e+00 1.00e+00h  1
   7  1.4664422e+00 2.63e-04 5.19e-03  -1.7 4.25e-02    -  1.00e+00 1.00e+00h  1
   8  1.4363425e-01 1.58e-04 3.19e-02  -3.8 4.96e-02    -  9.55e-01 1.00e+00f  1
   9  2.2908208e-02 6.15e-04 3.92e-02  -3.8 3.52e-02    -  9.81e-01 1.00e+00h  1
iter    objective    inf_pr   inf_du lg(mu)  ||d||  lg(rg) alpha_du alpha_pr  ls
  10  4.7180092e-03 1.41e-03 1.03e-02  -3.8 5.11e-02    -  1.00e+00 1.00e+00h  1
  11  2.0049078e-03 7.32e-04 1.29e-03  -3.8 3.43e-02    -  1.00e+00 1.00e+00h  1
  12  3.1453398e-04 3.66e-05 4.94e-04  -5.7 8.01e-03    -  9.85e-01 1.00e+00h  1
  13  5.7478445e-05 1.00e-03 1.59e-04  -5.7 4.07e-02    -  9.69e-01 1.00e+00h  1
  14  1.5936264e-05 3.74e-04 1.46e-05  -5.7 2.42e-02    -  1.00e+00 1.00e+00h  1
  15  7.2686387e-06 5.17e-05 1.67e-06  -5.7 1.01e-02    -  1.00e+00 1.00e+00h  1
  16  6.0123412e-06 2.04e-07 1.57e-08  -5.7 6.89e-04    -  1.00e+00 1.00e+00h  1
  17  1.0396276e-06 2.40e-06 5.06e-06  -8.6 2.08e-03    -  9.95e-01 1.00e+00h  1
  18  1.9402375e-07 8.23e-04 4.73e-05  -8.6 3.58e-02    -  9.04e-01 1.00e+00h  1
  19  4.6012973e-08 3.23e-06 2.08e-08  -8.6 2.95e-03    -  1.00e+00 1.00e+00h  1
iter    objective    inf_pr   inf_du lg(mu)  ||d||  lg(rg) alpha_du alpha_pr  ls
  20  1.1819086e-08 4.57e-04 1.58e-07  -8.6 2.57e-02    -  1.00e+00 1.00e+00h  1
  21  4.3308207e-09 3.16e-06 2.73e-09  -8.6 3.27e-03    -  1.00e+00 1.00e+00h  1
  22  2.9326951e-09 1.11e-07 1.15e-10  -8.6 4.45e-04    -  1.00e+00 1.00e+00h  1
  23  2.8102344e-09 1.83e-10 2.13e-13  -8.6 1.80e-05    -  1.00e+00 1.00e+00h  1

Number of Iterations....: 23

                                   (scaled)                 (unscaled)
Objective...............:   2.8102343656278797e-09    2.8102343656278797e-09
Dual infeasibility......:   2.1345590683327425e-13    2.1345590683327425e-13
Constraint violation....:   1.8256253453419191e-10    1.8256253453419191e-10
Complementarity.........:   2.5071940182177348e-09    2.5071940182177348e-09
Overall NLP error.......:   2.5071940182177348e-09    2.5071940182177348e-09


Number of objective function evaluations             = 24
Number of objective gradient evaluations             = 24
Number of equality constraint evaluations            = 24
Number of inequality constraint evaluations          = 0
Number of equality constraint Jacobian evaluations   = 24
Number of inequality constraint Jacobian evaluations = 0
Number of Lagrangian Hessian evaluations             = 23
Total CPU secs in IPOPT (w/o function evaluations)   =      0.808
Total CPU secs in NLP function evaluations           =      0.000

EXIT: Optimal Solution Found.


#######################Solve S 0#######################
   Iteration     Total nfev        Cost      Cost reduction    Step norm     Optimality   
       0              1         4.0387e-01                                    1.67e+00    
       1              2         2.7340e-02      3.77e-01       1.42e-01       4.24e-02    
       2              3         1.5297e-02      1.20e-02       5.14e-02       8.48e-03    
       3              4         1.4226e-02      1.07e-03       2.93e-02       9.10e-04    
       4              5         1.4212e-02      1.37e-05       3.63e-03       1.40e-05    
       5              6         1.4212e-02      5.54e-09       7.42e-05       6.88e-06    
       6              7         1.4212e-02      1.81e-11       3.96e-06       5.46e-06    
`ftol` termination condition is satisfied.
Function evaluations 7, initial cost 4.0387e-01, final cost 1.4212e-02, first-order optimality 5.46e-06.

#######################Solve C 0#######################
   Iteration     Total nfev        Cost      Cost reduction    Step norm     Optimality   
       0              1         1.4212e-02                                    2.22e-03    
       1              2         1.3334e-02      8.78e-04       2.26e-01       1.90e-03    
       2              3         1.3165e-02      1.68e-04       1.92e-02       8.90e-04    
       3              4         1.0672e-02      2.49e-03       1.21e+00       3.90e-04    
       4              5         1.0384e-02      2.87e-04       6.12e-01       7.70e-05    
       5              6         1.0345e-02      3.95e-05       1.50e-01       1.21e-03    
       6              7         1.0334e-02      1.11e-05       5.27e-02       5.08e-05    
       7              8         1.0333e-02      1.08e-06       1.58e-02       8.30e-06    
       8              9         1.0332e-02      2.00e-07       4.91e-03       3.14e-06    
       9             10         1.0332e-02      7.68e-08       2.83e-03       1.42e-06    
      10             11         1.0332e-02      1.69e-08       1.14e-03       1.12e-06    
      11             12         1.0332e-02      1.30e-08       9.99e-04       8.92e-07    
      12             13         1.0332e-02      6.14e-09       5.25e-04       7.34e-07    
      13             14         1.0332e-02      4.25e-09       3.92e-04       6.21e-07    
      14             15         1.0332e-02      3.73e-09       3.58e-04       4.92e-07    
      15             16         1.0332e-02      2.57e-09       2.61e-04       4.34e-07    
      16             17         1.0332e-02      2.21e-09       2.31e-04       3.73e-07    
      17             18         1.0332e-02      9.72e-10       1.04e-04       3.43e-07    
`ftol` termination condition is satisfied.
Function evaluations 18, initial cost 1.4212e-02, final cost 1.0332e-02, first-order optimality 3.43e-07.

#######################Iteration 1#######################

#######################Solve Z 1#######################
Solver command line: ['/home/kevin/scratch/anaconda3/envs/k57/bin/ipopt', '/tmp/tmplzu20f1o.pyomo.nl', '-AMPL']

Ipopt 3.13.3: 

******************************************************************************
This program contains Ipopt, a library for large-scale nonlinear optimization.
 Ipopt is released as open source code under the Eclipse Public License (EPL).
         For more information visit https://github.com/coin-or/Ipopt
******************************************************************************

This is Ipopt version 3.13.3, running with linear solver mumps.
NOTE: Other linear solvers might be more efficient (see Ipopt documentation).

Number of nonzeros in equality constraint Jacobian...:     5983
Number of nonzeros in inequality constraint Jacobian.:        0
Number of nonzeros in Lagrangian Hessian.............:     3298

Total number of variables............................:     2699
                     variables with only lower bounds:      900
                variables with lower and upper bounds:        2
                     variables with only upper bounds:        0
Total number of equality constraints.................:     1797
Total number of inequality constraints...............:        0
        inequality constraints with only lower bounds:        0
   inequality constraints with lower and upper bounds:        0
        inequality constraints with only upper bounds:        0

iter    objective    inf_pr   inf_du lg(mu)  ||d||  lg(rg) alpha_du alpha_pr  ls
   0  3.0481983e+00 1.83e-10 1.85e+00  -1.0 0.00e+00    -  0.00e+00 0.00e+00   0
   1  4.7219178e+00 3.92e-05 3.15e-01  -1.0 2.75e-01    -  7.59e-01 1.00e+00f  1
   2  1.4745114e+01 1.67e-03 1.84e-01  -1.0 2.10e-01    -  1.00e+00 1.00e+00f  1
   3  1.7850298e+00 7.01e-05 1.75e-01  -2.5 1.26e-01    -  1.00e+00 1.00e+00f  1
   4  2.9677171e-01 2.55e-04 5.45e-02  -2.5 5.57e-02    -  1.00e+00 1.00e+00f  1
   5  1.0902791e-01 9.72e-06 1.12e-02  -2.5 2.23e-02    -  1.00e+00 1.00e+00h  1
   6  1.5281955e-02 1.37e-04 1.32e-02  -3.8 2.10e-02    -  1.00e+00 1.00e+00f  1
   7  3.5034750e-03 4.79e-04 4.68e-03  -3.8 3.16e-02    -  1.00e+00 1.00e+00h  1
   8  1.7850747e-03 4.57e-04 5.00e-04  -3.8 2.80e-02    -  1.00e+00 1.00e+00h  1
   9  2.7555297e-04 3.01e-05 4.69e-04  -5.7 7.44e-03    -  9.88e-01 1.00e+00h  1
iter    objective    inf_pr   inf_du lg(mu)  ||d||  lg(rg) alpha_du alpha_pr  ls
  10  5.0433210e-05 1.10e-03 1.54e-04  -5.7 4.27e-02    -  9.69e-01 1.00e+00h  1
  11  1.4500715e-05 4.01e-04 1.35e-05  -5.7 2.48e-02    -  1.00e+00 1.00e+00h  1
  12  7.0143867e-06 3.63e-05 1.20e-06  -5.7 8.57e-03    -  1.00e+00 1.00e+00h  1
  13  5.9961977e-06 1.22e-07 9.90e-09  -5.7 5.27e-04    -  1.00e+00 1.00e+00h  1
  14  1.0363270e-06 2.39e-06 5.04e-06  -8.6 2.08e-03    -  9.95e-01 1.00e+00h  1
  15  1.9341352e-07 8.20e-04 4.72e-05  -8.6 3.57e-02    -  9.04e-01 1.00e+00h  1
  16  4.5870012e-08 3.32e-06 2.12e-08  -8.6 2.96e-03    -  1.00e+00 1.00e+00h  1
  17  1.1787212e-08 4.54e-04 1.57e-07  -8.6 2.56e-02    -  1.00e+00 1.00e+00h  1
  18  4.3242931e-09 3.14e-06 2.72e-09  -8.6 3.26e-03    -  1.00e+00 1.00e+00h  1
  19  2.9318360e-09 1.10e-07 1.14e-10  -8.6 4.42e-04    -  1.00e+00 1.00e+00h  1
iter    objective    inf_pr   inf_du lg(mu)  ||d||  lg(rg) alpha_du alpha_pr  ls
  20  2.8102169e-09 1.79e-10 2.10e-13  -8.6 1.78e-05    -  1.00e+00 1.00e+00h  1

Number of Iterations....: 20

                                   (scaled)                 (unscaled)
Objective...............:   2.8102169301578286e-09    2.8102169301578286e-09
Dual infeasibility......:   2.0960078460461207e-13    2.0960078460461207e-13
Constraint violation....:   1.7925786549577438e-10    1.7925786549577438e-10
Complementarity.........:   2.5071770747793784e-09    2.5071770747793784e-09
Overall NLP error.......:   2.5071770747793784e-09    2.5071770747793784e-09


Number of objective function evaluations             = 21
Number of objective gradient evaluations             = 21
Number of equality constraint evaluations            = 21
Number of inequality constraint evaluations          = 0
Number of equality constraint Jacobian evaluations   = 21
Number of inequality constraint Jacobian evaluations = 0
Number of Lagrangian Hessian evaluations             = 20
Total CPU secs in IPOPT (w/o function evaluations)   =      0.700
Total CPU secs in NLP function evaluations           =      0.008

EXIT: Optimal Solution Found.


#######################Solve S 1#######################
   Iteration     Total nfev        Cost      Cost reduction    Step norm     Optimality   
       0              1         1.4212e-02                                    5.46e-06    
       1              2         1.4212e-02      9.68e-13       2.66e-07       1.60e-06    
`ftol` termination condition is satisfied.
Function evaluations 2, initial cost 1.4212e-02, final cost 1.4212e-02, first-order optimality 1.60e-06.

#######################Solve C 1#######################
   Iteration     Total nfev        Cost      Cost reduction    Step norm     Optimality   
       0              1         1.4212e-02                                    2.22e-03    
       1              2         1.3334e-02      8.78e-04       2.26e-01       1.90e-03    
       2              3         1.3165e-02      1.68e-04       1.92e-02       8.90e-04    
       3              4         1.0672e-02      2.49e-03       1.21e+00       3.90e-04    
       4              5         1.0384e-02      2.88e-04       6.12e-01       7.72e-05    
       5              6         1.0345e-02      3.95e-05       1.50e-01       1.21e-03    
       6              7         1.0334e-02      1.11e-05       5.26e-02       5.10e-05    
       7              8         1.0333e-02      1.08e-06       1.58e-02       8.33e-06    
       8              9         1.0332e-02      1.98e-07       4.79e-03       3.16e-06    
       9             10         1.0332e-02      7.65e-08       2.82e-03       1.45e-06    
      10             11         1.0332e-02      1.99e-08       1.35e-03       1.10e-06    
      11             12         1.0332e-02      1.29e-08       1.02e-03       8.62e-07    
      12             13         1.0332e-02      7.72e-09       6.67e-04       6.93e-07    
      13             14         1.0332e-02      4.52e-09       4.30e-04       5.50e-07    
      14             15         1.0332e-02      2.39e-09       2.38e-04       4.62e-07    
      15             16         1.0332e-02      1.95e-09       2.01e-04       3.87e-07    
      16             17         1.0332e-02      9.60e-10       1.01e-04       3.60e-07    
`ftol` termination condition is satisfied.
Function evaluations 17, initial cost 1.4212e-02, final cost 1.0332e-02, first-order optimality 3.60e-07.
